83 77 10
73 37 10
66 62 10
99 49 10
187 212 10
86 907 10
160 304 10
100 104 10
505 505 10
96 90 10
87 82 10
216 63 10
939 91 10
841 84 10
99 97 10
83 86 10
111 99 10
203 207 10
109 101 10
244 676 10
464 784 10
76 652 10
105 103 10